10J3M/DAT/10J3MULX-9.dat
10 3
42.2995 6.5038
15.9582 3.9948
30.354 5.5094
26.2407 5.1226
44.3415 6.6589
13.4357 3.6655
43.0551 6.5616
7.697 2.7743
1.3792 1.1744
29.3241 5.4152
15.7935