10J3M/SOL/10J3MULX-9.sol
solution status: optimal solution found
objective value:                     77.1421333333333
x#1#2                                               1 	(obj:0)
x#2#3                                               1 	(obj:0)
x#3#2                                               1 	(obj:0)
x#4#1                                               1 	(obj:0)
x#5#1                               0.726398284328473 	(obj:0)
x#5#3                               0.273601715671527 	(obj:0)
x#6#1                                               1 	(obj:0)
x#7#2                                               1 	(obj:0)
x#8#2                               0.742494114436447 	(obj:0)
x#8#3                               0.257505885563553 	(obj:0)
x#9#1                               0.116058928144092 	(obj:0)
x#9#2                               0.362151183686072 	(obj:0)
x#9#3                               0.521789888169836 	(obj:0)
x#10#3                                              1 	(obj:0)
z                                    77.1421333333333 	(obj:1)
